17	4	3
14	12	11	12	33	17	31	
0	0	0	0	0	5	9	2	2	10	9	3	2	3	4
7	0	0	0	7	10	5	8	5	5	4	3	5	14	17
6	10	0	3	0	10	9	7	10	1	7	3	8	12	17
5	0	0	8	5	6	8	3	7	6	6	3	8	12	17
10	5	0	0	0	10	6	8	5	8	7	3	6	7	17
225	0	9	0	5	7	3	5	9	4	4	1	11
175	8	0	1	0	7	4	8	4	8	3	2	15	16
250	0	9	0	2	8	8	1	4	7	2	3	9	11	17
50	0	0	0	9	1	3	9	3	10	5	2	10	17
225	0	2	2	0	9	9	10	7	3	8	1	13
250	0	0	3	4	3	10	10	7	8	3	1	17
75	8	0	1	9	10	5	7	8	9	5	1	17
2	0	9	1	0	10	6	2	1	10	9	1	17
8	7	0	10	0	3	1	1	2	4	10	2	17	17
5	5	9	0	2	6	3	9	6	9	1	1	17
8	2	1	3	0	3	2	1	3	8	8	1	17
0	0	0	0	0	6	8	3	2	5	1	0
